GLPSOL--GLPK LP/MIP Solver 5.0
Parameter(s) specified in the command line:
 --lp ../modeles/20_59.lp --log 20_59.log
Reading problem data from '../modeles/20_59.lp'...
1261 rows, 2400 columns, 8360 non-zeros
1180 integer variables, all of which are binary
3687 lines were read
GLPK Integer Optimizer 5.0
1261 rows, 2400 columns, 8360 non-zeros
1180 integer variables, all of which are binary
Preprocessing...
1160 constraint coefficient(s) were reduced
1261 rows, 2380 columns, 8340 non-zeros
1180 integer variables, all of which are binary
Scaling...
 A: min|aij| =  1.149e-03  max|aij| =  4.000e+00  ratio =  3.481e+03
GM: min|aij| =  1.302e-01  max|aij| =  7.681e+00  ratio =  5.900e+01
EQ: min|aij| =  1.695e-02  max|aij| =  1.000e+00  ratio =  5.900e+01
2N: min|aij| =  1.562e-02  max|aij| =  1.719e+00  ratio =  1.100e+02
Constructing initial basis...
Size of triangular part is 1261
Solving LP relaxation...
GLPK Simplex Optimizer 5.0
1261 rows, 2380 columns, 8340 non-zeros
      0: obj =   4.000000000e+01 inf =   9.950e+01 (41)
    219: obj =   4.886494253e-01 inf =   0.000e+00 (0)
*   553: obj =  -4.435734463e+00 inf =   2.327e-15 (0)
OPTIMAL LP SOLUTION FOUND
Integer optimization begins...
Long-step dual simplex will be used
+   553: mip =     not found yet >=              -inf        (1; 0)
+   568: >>>>>  -4.435734463e+00 >=  -4.435734463e+00   0.0% (11; 0)
+   568: mip =  -4.435734463e+00 >=     tree is empty   0.0% (0; 21)
INTEGER OPTIMAL SOLUTION FOUND
Time used:   0.1 secs
Memory used: 3.5 Mb (3685524 bytes)
